5 5
5 1 3 15 2 3 7 5 13 5 1 2 2 5 5 7 4 8 3 2 2 1 13 3 9 4 5 12 2 8 1 20 4 6
4 3 4 6 1 2 5 20 3 3 5 5 6 2 5 5 1 5 5 16 3 8 2 8 4 14 2 4 7 5 3
4 3 1 12 3 19 5 11 1 1 17 4 2 19 4 10 1 12 3 18 1 2 13
5 1 3 11 5 3 5 1 12 4 3 5 13 2 7 1 5 12 2 3 19 5 13 4 3 11 5 11 4 17 1 18
8 5 3 8 1 3 4 17 5 17 2 11 2 2 19 1 7 5 5 5 3 8 1 19 2 20 4 3 1 4 17 5 3 15 4 18 2 8 5 13 1 16 2 3 14 4 10 1 5 10 3 2 15 3 10 5 10